# LAMMPS Polymer = GAFF, TIP4P water model

atom_style      full
units           real
boundary        p p p    
bond_style      harmonic
angle_style     harmonic
dihedral_style  fourier
improper_style  cvff
# pair_style      lj/charmm/coul/long 9.0 10.0 10.0 # original gaff
special_bonds   amber
# tip4p/2005 style, 9 Å LJ from GAFF, 8.5 Coulomb cutoff from tip4p
pair_style      lj/cut/tip4p/long otype htype wbond_id wangle_id 0.1546 9.0 8.5 
kspace_style    pppm/tip4p 0.0001
pair_modify     mix arithmetic

read_data       pack.lmps

group tip4p type otype htype

dielectric       1.0                      
neighbor         3.0 bin                  
neigh_modify     delay 0 every 1 check yes
timestep         1.0                    
run_style        verlet                   

thermo 1000                                                             
thermo_style custom step pe ke enthalpy temp press vol density        
                                                        
fix fShakeTIP4P tip4p shake 0.0001 10 100 b wbond a angle

dump d1 all custom 1000 traj.lmp element xu yu zu                        
dump_modify d1 element C C H H H H H N O O O O S
dump_modify d1 sort id                                                

fix   fxnpt all npt temp 298 298 200 iso 1 1 1000 tchain 3 pchain 3 mtk yes
run   1000000
write_data 1ns.data
