# IL (CL&P) + water (SWM4-NDP) equilibration using fix/rigid for water

units           real
boundary        p p p
neighbor        2.0 bin
neigh_modify    every 1 delay 0 check yes

atom_style      full
bond_style      harmonic
angle_style     harmonic
dihedral_style  opls
improper_style  cvff

pair_style      hybrid/overlay lj/cut/coul/long 12 12 coul/long/cs 12.0 thole 2.6 12.0 coul/tt 4 12.0
pair_modify     mix geometric
kspace_style    pppm 1e-5
special_bonds   lj/coul 0.0 0.0 0.5

read_data ${data} extra/special/per/atom 3 
include ${pairs}

group ATOMS  type ${atoms}
group CORES  type ${cores}
group DRUDES type ${drudes}
group WATER  type ${waters}
group IL     subtract ATOMS WATER

fix DRUDE all drude ${drudefix}

fix SHAKE ATOMS shake 0.0001 20 0 b ${shakefix}

variable TK equal 298
variable TDK equal 1
variable PBAR equal 1
variable DUMP equal 10000

comm_modify vel yes
compute TATOMS ATOMS temp
fix DIRECT all drude/transform/direct
fix RIG WATER rigid/npt/small molecule temp ${TK} ${TK} 100 iso ${PBAR} ${PBAR} 500 dilate all 
# dilate necessary otherwise box deforms in a non-uniform manner, with a rapid reduction in density
fix fIL IL nvt temp ${TK} ${TK} 100 
fix_modify fIL temp TATOMS 
fix NVT DRUDES nvt temp ${TDK} ${TDK} 20
fix INVERSE all drude/transform/inverse
fix ICECUBE all momentum 100 linear 1 1 1
compute TDRUDE all temp/drude

velocity        ATOMS create ${TK} ${TK} dist gaussian
velocity        DRUDES create ${TDK} ${TDK} dist gaussian

thermo_style custom step cpu etotal ke pe evdwl ecoul elong temp c_TDRUDE[1] c_TDRUDE[2] press vol density 
thermo 1000

timestep        1
restart         ${DUMP} IL.restart1 IL.restart2
dump d1 ATOMS   custom ${DUMP} traj.lmp element xu yu zu
dump_modify d1  element ${elements}
dump_modify d1  sort id
run             5000000

write_data output.data
